p tw 144 23761 2 
1 3 
1 4 
1 5 
1 6 
1 7 
1 8 
1 9 
1 10 
1 11 
1 12 
1 13 
1 24 
1 25 
1 35 
1 37 
1 46 
1 49 
1 54 
1 61 
1 68 
1 73 
1 79 
1 85 
1 93 
1 97 
1 101 
1 109 
1 112 
1 121 
1 123 
1 133 
1 134 
2 3 
2 4 
2 5 
2 6 
2 7 
2 8 
2 9 
2 10 
2 11 
2 12 
2 14 
2 16 
2 26 
2 34 
2 38 
2 41 
2 50 
2 55 
2 62 
2 69 
2 74 
2 75 
2 86 
2 90 
2 97 
2 98 
2 110 
2 120 
2 122 
2 131 
2 134 
2 140 
3 4 
3 5 
3 6 
3 7 
3 8 
3 9 
3 10 
3 11 
3 12 
3 14 
3 15 
3 25 
3 27 
3 39 
3 48 
3 51 
3 59 
3 63 
3 70 
3 75 
3 78 
3 87 
3 92 
3 99 
3 103 
3 111 
3 117 
3 123 
3 125 
3 135 
3 136 
4 5 
4 6 
4 7 
4 8 
4 9 
4 10 
4 11 
4 12 
4 15 
4 16 
4 28 
4 30 
4 40 
4 45 
4 52 
4 56 
4 64 
4 67 
4 73 
4 76 
4 88 
4 89 
4 100 
4 107 
4 110 
4 112 
4 124 
4 132 
4 136 
4 142 
5 6 
5 7 
5 8 
5 9 
5 10 
5 11 
5 12 
5 13 
5 17 
5 27 
5 29 
5 38 
5 41 
5 53 
5 57 
5 65 
5 72 
5 77 
5 83 
5 89 
5 91 
5 100 
5 101 
5 113 
5 116 
5 125 
5 130 
5 137 
5 138 
6 7 
6 8 
6 9 
6 10 
6 11 
6 12 
6 18 
6 21 
6 28 
6 30 
6 37 
6 42 
6 54 
6 60 
6 63 
6 66 
6 74 
6 78 
6 90 
6 95 
6 102 
6 106 
6 114 
6 115 
6 126 
6 128 
6 137 
6 138 
7 8 
7 9 
7 10 
7 11 
7 12 
7 18 
7 19 
7 29 
7 31 
7 40 
7 43 
7 51 
7 55 
7 62 
7 67 
7 79 
7 82 
7 91 
7 96 
7 103 
7 104 
7 109 
7 115 
7 127 
7 129 
7 139 
7 143 
8 9 
8 10 
8 11 
8 12 
8 17 
8 20 
8 26 
8 32 
8 44 
8 47 
8 52 
8 56 
8 61 
8 68 
8 80 
8 81 
8 92 
8 94 
8 104 
8 108 
8 114 
8 116 
8 127 
8 128 
8 135 
8 140 
9 10 
9 11 
9 12 
9 21 
9 23 
9 33 
9 36 
9 43 
9 45 
9 57 
9 58 
9 65 
9 69 
9 80 
9 81 
9 86 
9 93 
9 102 
9 105 
9 111 
9 117 
9 124 
9 129 
9 133 
9 141 
10 11 
10 12 
10 19 
10 22 
10 32 
10 34 
10 42 
10 46 
10 49 
10 58 
10 70 
10 71 
10 76 
10 82 
10 87 
10 94 
10 105 
10 106 
10 113 
10 118 
10 122 
10 130 
10 142 
10 144 
11 12 
11 20 
11 23 
11 31 
11 35 
11 39 
11 47 
11 53 
11 59 
11 64 
11 71 
11 83 
11 84 
11 85 
11 95 
11 98 
11 107 
11 118 
11 119 
11 126 
11 131 
11 141 
11 143 
12 22 
12 24 
12 33 
12 36 
12 44 
12 48 
12 50 
12 60 
12 66 
12 72 
12 77 
12 84 
12 88 
12 96 
12 99 
12 108 
12 119 
12 120 
12 121 
12 132 
12 139 
12 144 
13 14 
13 15 
13 16 
13 17 
13 18 
13 19 
13 20 
13 21 
13 22 
13 23 
13 24 
13 25 
13 27 
13 37 
13 38 
13 49 
13 57 
13 61 
13 72 
13 73 
13 83 
13 85 
13 91 
13 97 
13 100 
13 109 
13 116 
13 121 
13 130 
13 133 
13 138 
14 15 
14 16 
14 17 
14 18 
14 19 
14 20 
14 21 
14 22 
14 23 
14 24 
14 25 
14 26 
14 38 
14 48 
14 50 
14 59 
14 62 
14 70 
14 74 
14 78 
14 86 
14 92 
14 98 
14 103 
14 110 
14 117 
14 122 
14 125 
14 134 
14 136 
15 16 
15 17 
15 18 
15 19 
15 20 
15 21 
15 22 
15 23 
15 24 
15 27 
15 30 
15 39 
15 45 
15 51 
15 56 
15 63 
15 67 
15 73 
15 75 
15 87 
15 89 
15 99 
15 107 
15 110 
15 111 
15 123 
15 132 
15 135 
15 142 
16 17 
16 18 
16 19 
16 20 
16 21 
16 22 
16 23 
16 24 
16 28 
16 34 
16 40 
16 41 
16 52 
16 55 
16 64 
16 69 
16 75 
16 76 
16 88 
16 90 
16 97 
16 100 
16 112 
16 120 
16 124 
16 131 
16 136 
16 140 
17 18 
17 19 
17 20 
17 21 
17 22 
17 23 
17 24 
17 26 
17 29 
17 41 
17 47 
17 52 
17 53 
17 61 
17 65 
17 77 
17 81 
17 89 
17 94 
17 101 
17 108 
17 113 
17 114 
17 125 
17 127 
17 135 
17 137 
18 19 
18 20 
18 21 
18 22 
18 23 
18 24 
18 29 
18 30 
18 40 
18 42 
18 51 
18 54 
18 62 
18 66 
18 78 
18 82 
18 90 
18 96 
18 102 
18 104 
18 109 
18 114 
18 126 
18 129 
18 138 
18 143 
19 20 
19 21 
19 22 
19 23 
19 24 
19 31 
19 32 
19 42 
19 43 
19 49 
19 55 
19 67 
19 71 
19 76 
19 79 
19 87 
19 91 
19 103 
19 105 
19 113 
19 115 
19 122 
19 127 
19 139 
19 144 
20 21 
20 22 
20 23 
20 24 
20 31 
20 32 
20 39 
20 44 
20 53 
20 56 
20 64 
20 68 
20 80 
20 84 
20 85 
20 92 
20 98 
20 104 
20 116 
20 118 
20 126 
20 128 
20 140 
20 141 
21 22 
21 23 
21 24 
21 28 
21 33 
21 37 
21 45 
21 57 
21 60 
21 63 
21 69 
21 74 
21 81 
21 93 
21 95 
21 105 
21 106 
21 115 
21 117 
21 128 
21 129 
21 137 
21 141 
22 23 
22 24 
22 33 
22 34 
22 44 
22 46 
22 50 
22 58 
22 66 
22 70 
22 77 
22 82 
22 88 
22 94 
22 99 
22 106 
22 118 
22 119 
22 121 
22 130 
22 139 
22 142 
23 24 
23 35 
23 36 
23 43 
23 47 
23 58 
23 59 
23 65 
23 71 
23 80 
23 83 
23 86 
23 95 
23 102 
23 107 
23 111 
23 119 
23 124 
23 131 
23 133 
23 143 
24 35 
24 36 
24 46 
24 48 
24 54 
24 60 
24 68 
24 72 
24 79 
24 84 
24 93 
24 96 
24 101 
24 108 
24 112 
24 120 
24 123 
24 132 
24 134 
24 144 
25 26 
25 27 
25 28 
25 29 
25 30 
25 31 
25 32 
25 33 
25 34 
25 35 
25 36 
25 37 
25 48 
25 49 
25 59 
25 61 
25 70 
25 73 
25 78 
25 85 
25 92 
25 97 
25 103 
25 109 
25 117 
25 121 
25 125 
25 133 
25 136 
26 27 
26 28 
26 29 
26 30 
26 31 
26 32 
26 33 
26 34 
26 35 
26 36 
26 38 
26 47 
26 50 
26 52 
26 61 
26 62 
26 74 
26 81 
26 86 
26 94 
26 98 
26 108 
26 110 
26 114 
26 122 
26 127 
26 134 
26 135 
27 28 
27 29 
27 30 
27 31 
27 32 
27 33 
27 34 
27 35 
27 36 
27 38 
27 39 
27 51 
27 57 
27 63 
27 72 
27 75 
27 83 
27 87 
27 91 
27 99 
27 100 
27 111 
27 116 
27 123 
27 130 
27 135 
27 138 
28 29 
28 30 
28 31 
28 32 
28 33 
28 34 
28 35 
28 36 
28 37 
28 40 
28 52 
28 60 
28 63 
28 64 
28 74 
28 76 
28 88 
28 95 
28 100 
28 106 
28 112 
28 115 
28 124 
28 128 
28 136 
28 137 
29 30 
29 31 
29 32 
29 33 
29 34 
29 35 
29 36 
29 40 
29 41 
29 51 
29 53 
29 62 
29 65 
29 77 
29 82 
29 89 
29 96 
29 101 
29 104 
29 109 
29 113 
29 125 
29 129 
29 137 
29 143 
30 31 
30 32 
30 33 
30 34 
30 35 
30 36 
30 42 
30 45 
30 54 
30 56 
30 66 
30 67 
30 73 
30 78 
30 89 
30 90 
30 102 
30 107 
30 110 
30 114 
30 126 
30 132 
30 138 
30 142 
31 32 
31 33 
31 34 
31 35 
31 36 
31 39 
31 43 
31 53 
31 55 
31 64 
31 67 
31 79 
31 84 
31 85 
31 91 
31 98 
31 103 
31 115 
31 118 
31 126 
31 127 
31 139 
31 141 
32 33 
32 34 
32 35 
32 36 
32 42 
32 44 
32 49 
32 56 
32 68 
32 71 
32 76 
32 80 
32 87 
32 92 
32 104 
32 105 
32 113 
32 116 
32 122 
32 128 
32 140 
32 144 
33 34 
33 35 
33 36 
33 44 
33 45 
33 50 
33 57 
33 66 
33 69 
33 77 
33 81 
33 88 
33 93 
33 99 
33 105 
33 117 
33 119 
33 121 
33 129 
33 139 
33 141 
34 35 
34 36 
34 41 
34 46 
34 55 
34 58 
34 69 
34 70 
34 75 
34 82 
34 90 
34 94 
34 97 
34 106 
34 118 
34 120 
34 130 
34 131 
34 140 
34 142 
35 36 
35 46 
35 47 
35 54 
35 59 
35 68 
35 71 
35 79 
35 83 
35 93 
35 95 
35 101 
35 107 
35 112 
35 119 
35 123 
35 131 
35 134 
35 143 
36 43 
36 48 
36 58 
36 60 
36 65 
36 72 
36 80 
36 84 
36 86 
36 96 
36 102 
36 108 
36 111 
36 120 
36 124 
36 132 
36 133 
36 144 
37 38 
37 39 
37 40 
37 41 
37 42 
37 43 
37 44 
37 45 
37 46 
37 47 
37 48 
37 49 
37 60 
37 61 
37 63 
37 73 
37 74 
37 85 
37 95 
37 97 
37 106 
37 109 
37 115 
37 121 
37 128 
37 133 
37 137 
38 39 
38 40 
38 41 
38 42 
38 43 
38 44 
38 45 
38 46 
38 47 
38 48 
38 50 
38 57 
38 62 
38 72 
38 74 
38 83 
38 86 
38 91 
38 98 
38 100 
38 110 
38 116 
38 122 
38 130 
38 134 
38 138 
39 40 
39 41 
39 42 
39 43 
39 44 
39 45 
39 46 
39 47 
39 48 
39 51 
39 53 
39 63 
39 64 
39 75 
39 84 
39 85 
39 87 
39 98 
39 99 
39 111 
39 118 
39 123 
39 126 
39 135 
39 141 
40 41 
40 42 
40 43 
40 44 
40 45 
40 46 
40 47 
40 48 
40 51 
40 52 
40 62 
40 64 
40 76 
40 82 
40 88 
40 96 
40 100 
40 104 
40 109 
40 112 
40 124 
40 129 
40 136 
40 143 
41 42 
41 43 
41 44 
41 45 
41 46 
41 47 
41 48 
41 53 
41 55 
41 65 
41 69 
41 75 
41 77 
41 89 
41 90 
41 97 
41 101 
41 113 
41 120 
41 125 
41 131 
41 137 
41 140 
42 43 
42 44 
42 45 
42 46 
42 47 
42 48 
42 49 
42 54 
42 66 
42 71 
42 76 
42 78 
42 87 
42 90 
42 102 
42 105 
42 113 
42 114 
42 122 
42 126 
42 138 
42 144 
43 44 
43 45 
43 46 
43 47 
43 48 
43 55 
43 58 
43 65 
43 67 
43 79 
43 80 
43 86 
43 91 
43 102 
43 103 
43 111 
43 115 
43 124 
43 127 
43 133 
43 139 
44 45 
44 46 
44 47 
44 48 
44 50 
44 56 
44 66 
44 68 
44 77 
44 80 
44 88 
44 92 
44 99 
44 104 
44 116 
44 119 
44 121 
44 128 
44 139 
44 140 
45 46 
45 47 
45 48 
45 56 
45 57 
45 67 
45 69 
45 73 
45 81 
45 89 
45 93 
45 105 
45 107 
45 110 
45 117 
45 129 
45 132 
45 141 
45 142 
46 47 
46 48 
46 54 
46 58 
46 68 
46 70 
46 79 
46 82 
46 93 
46 94 
46 101 
46 106 
46 112 
46 118 
46 123 
46 130 
46 134 
46 142 
47 48 
47 52 
47 59 
47 61 
47 71 
47 81 
47 83 
47 94 
47 95 
47 107 
47 108 
47 114 
47 119 
47 127 
47 131 
47 135 
47 143 
48 59 
48 60 
48 70 
48 72 
48 78 
48 84 
48 92 
48 96 
48 103 
48 108 
48 117 
48 120 
48 125 
48 132 
48 136 
48 144 
49 50 
49 51 
49 52 
49 53 
49 54 
49 55 
49 56 
49 57 
49 58 
49 59 
49 60 
49 61 
49 71 
49 73 
49 76 
49 85 
49 87 
49 97 
49 105 
49 109 
49 113 
49 121 
49 122 
49 133 
49 144 
50 51 
50 52 
50 53 
50 54 
50 55 
50 56 
50 57 
50 58 
50 59 
50 60 
50 62 
50 66 
50 74 
50 77 
50 86 
50 88 
50 98 
50 99 
50 110 
50 119 
50 121 
50 122 
50 134 
50 139 
51 52 
51 53 
51 54 
51 55 
51 56 
51 57 
51 58 
51 59 
51 60 
51 62 
51 63 
51 75 
51 82 
51 87 
51 96 
51 99 
51 104 
51 109 
51 111 
51 123 
51 129 
51 135 
51 143 
52 53 
52 54 
52 55 
52 56 
52 57 
52 58 
52 59 
52 60 
52 61 
52 64 
52 76 
52 81 
52 88 
52 94 
52 100 
52 108 
52 112 
52 114 
52 124 
52 127 
52 135 
52 136 
53 54 
53 55 
53 56 
53 57 
53 58 
53 59 
53 60 
53 64 
53 65 
53 77 
53 84 
53 85 
53 89 
53 98 
53 101 
53 113 
53 118 
53 125 
53 126 
53 137 
53 141 
54 55 
54 56 
54 57 
54 58 
54 59 
54 60 
54 66 
54 68 
54 78 
54 79 
54 90 
54 93 
54 101 
54 102 
54 112 
54 114 
54 123 
54 126 
54 134 
54 138 
55 56 
55 57 
55 58 
55 59 
55 60 
55 67 
55 69 
55 75 
55 79 
55 90 
55 91 
55 97 
55 103 
55 115 
55 120 
55 127 
55 131 
55 139 
55 140 
56 57 
56 58 
56 59 
56 60 
56 67 
56 68 
56 73 
56 80 
56 89 
56 92 
56 104 
56 107 
56 110 
56 116 
56 128 
56 132 
56 140 
56 142 
57 58 
57 59 
57 60 
57 69 
57 72 
57 81 
57 83 
57 91 
57 93 
57 100 
57 105 
57 116 
57 117 
57 129 
57 130 
57 138 
57 141 
58 59 
58 60 
58 65 
58 70 
58 80 
58 82 
58 86 
58 94 
58 102 
58 106 
58 111 
58 118 
58 124 
58 130 
58 133 
58 142 
59 60 
59 70 
59 71 
59 78 
59 83 
59 92 
59 95 
59 103 
59 107 
59 117 
59 119 
59 125 
59 131 
59 136 
59 143 
60 63 
60 72 
60 74 
60 84 
60 95 
60 96 
60 106 
60 108 
60 115 
60 120 
60 128 
60 132 
60 137 
60 144 
61 62 
61 63 
61 64 
61 65 
61 66 
61 67 
61 68 
61 69 
61 70 
61 71 
61 72 
61 73 
61 81 
61 85 
61 94 
61 97 
61 108 
61 109 
61 114 
61 121 
61 127 
61 133 
61 135 
62 63 
62 64 
62 65 
62 66 
62 67 
62 68 
62 69 
62 70 
62 71 
62 72 
62 74 
62 82 
62 86 
62 96 
62 98 
62 104 
62 109 
62 110 
62 122 
62 129 
62 134 
62 143 
63 64 
63 65 
63 66 
63 67 
63 68 
63 69 
63 70 
63 71 
63 72 
63 74 
63 75 
63 87 
63 95 
63 99 
63 106 
63 111 
63 115 
63 123 
63 128 
63 135 
63 137 
64 65 
64 66 
64 67 
64 68 
64 69 
64 70 
64 71 
64 72 
64 76 
64 84 
64 85 
64 88 
64 98 
64 100 
64 112 
64 118 
64 124 
64 126 
64 136 
64 141 
65 66 
65 67 
65 68 
65 69 
65 70 
65 71 
65 72 
65 77 
65 80 
65 86 
65 89 
65 101 
65 102 
65 111 
65 113 
65 124 
65 125 
65 133 
65 137 
66 67 
66 68 
66 69 
66 70 
66 71 
66 72 
66 77 
66 78 
66 88 
66 90 
66 99 
66 102 
66 114 
66 119 
66 121 
66 126 
66 138 
66 139 
67 68 
67 69 
67 70 
67 71 
67 72 
67 73 
67 79 
67 89 
67 91 
67 103 
67 107 
67 110 
67 115 
67 127 
67 132 
67 139 
67 142 
68 69 
68 70 
68 71 
68 72 
68 79 
68 80 
68 92 
68 93 
68 101 
68 104 
68 112 
68 116 
68 123 
68 128 
68 134 
68 140 
69 70 
69 71 
69 72 
69 75 
69 81 
69 90 
69 93 
69 97 
69 105 
69 117 
69 120 
69 129 
69 131 
69 140 
69 141 
70 71 
70 72 
70 78 
70 82 
70 92 
70 94 
70 103 
70 106 
70 117 
70 118 
70 125 
70 130 
70 136 
70 142 
71 72 
71 76 
71 83 
71 87 
71 95 
71 105 
71 107 
71 113 
71 119 
71 122 
71 131 
71 143 
71 144 
72 83 
72 84 
72 91 
72 96 
72 100 
72 108 
72 116 
72 120 
72 130 
72 132 
72 138 
72 144 
73 74 
73 75 
73 76 
73 77 
73 78 
73 79 
73 80 
73 81 
73 82 
73 83 
73 84 
73 85 
73 89 
73 97 
73 107 
73 109 
73 110 
73 121 
73 132 
73 133 
73 142 
74 75 
74 76 
74 77 
74 78 
74 79 
74 80 
74 81 
74 82 
74 83 
74 84 
74 86 
74 95 
74 98 
74 106 
74 110 
74 115 
74 122 
74 128 
74 134 
74 137 
75 76 
75 77 
75 78 
75 79 
75 80 
75 81 
75 82 
75 83 
75 84 
75 87 
75 90 
75 97 
75 99 
75 111 
75 120 
75 123 
75 131 
75 135 
75 140 
76 77 
76 78 
76 79 
76 80 
76 81 
76 82 
76 83 
76 84 
76 87 
76 88 
76 100 
76 105 
76 112 
76 113 
76 122 
76 124 
76 136 
76 144 
77 78 
77 79 
77 80 
77 81 
77 82 
77 83 
77 84 
77 88 
77 89 
77 99 
77 101 
77 113 
77 119 
77 121 
77 125 
77 137 
77 139 
78 79 
78 80 
78 81 
78 82 
78 83 
78 84 
78 90 
78 92 
78 102 
78 103 
78 114 
78 117 
78 125 
78 126 
78 136 
78 138 
79 80 
79 81 
79 82 
79 83 
79 84 
79 91 
79 93 
79 101 
79 103 
79 112 
79 115 
79 123 
79 127 
79 134 
79 139 
80 81 
80 82 
80 83 
80 84 
80 86 
80 92 
80 102 
80 104 
80 111 
80 116 
80 124 
80 128 
80 133 
80 140 
81 82 
81 83 
81 84 
81 93 
81 94 
81 105 
81 108 
81 114 
81 117 
81 127 
81 129 
81 135 
81 141 
82 83 
82 84 
82 94 
82 96 
82 104 
82 106 
82 109 
82 118 
82 129 
82 130 
82 142 
82 143 
83 84 
83 91 
83 95 
83 100 
83 107 
83 116 
83 119 
83 130 
83 131 
83 138 
83 143 
84 85 
84 96 
84 98 
84 108 
84 118 
84 120 
84 126 
84 132 
84 141 
84 144 
85 86 
85 87 
85 88 
85 89 
85 90 
85 91 
85 92 
85 93 
85 94 
85 95 
85 96 
85 97 
85 98 
85 109 
85 118 
85 121 
85 126 
85 133 
85 141 
86 87 
86 88 
86 89 
86 90 
86 91 
86 92 
86 93 
86 94 
86 95 
86 96 
86 98 
86 102 
86 110 
86 111 
86 122 
86 124 
86 133 
86 134 
87 88 
87 89 
87 90 
87 91 
87 92 
87 93 
87 94 
87 95 
87 96 
87 99 
87 105 
87 111 
87 113 
87 122 
87 123 
87 135 
87 144 
88 89 
88 90 
88 91 
88 92 
88 93 
88 94 
88 95 
88 96 
88 99 
88 100 
88 112 
88 119 
88 121 
88 124 
88 136 
88 139 
89 90 
89 91 
89 92 
89 93 
89 94 
89 95 
89 96 
89 101 
89 107 
89 110 
89 113 
89 125 
89 132 
89 137 
89 142 
90 91 
90 92 
90 93 
90 94 
90 95 
90 96 
90 97 
90 102 
90 114 
90 120 
90 126 
90 131 
90 138 
90 140 
91 92 
91 93 
91 94 
91 95 
91 96 
91 100 
91 103 
91 115 
91 116 
91 127 
91 130 
91 138 
91 139 
92 93 
92 94 
92 95 
92 96 
92 103 
92 104 
92 116 
92 117 
92 125 
92 128 
92 136 
92 140 
93 94 
93 95 
93 96 
93 101 
93 105 
93 112 
93 117 
93 123 
93 129 
93 134 
93 141 
94 95 
94 96 
94 106 
94 108 
94 114 
94 118 
94 127 
94 130 
94 135 
94 142 
95 96 
95 106 
95 107 
95 115 
95 119 
95 128 
95 131 
95 137 
95 143 
96 104 
96 108 
96 109 
96 120 
96 129 
96 132 
96 143 
96 144 
97 98 
97 99 
97 100 
97 101 
97 102 
97 103 
97 104 
97 105 
97 106 
97 107 
97 108 
97 109 
97 120 
97 121 
97 131 
97 133 
97 140 
98 99 
98 100 
98 101 
98 102 
98 103 
98 104 
98 105 
98 106 
98 107 
98 108 
98 110 
98 118 
98 122 
98 126 
98 134 
98 141 
99 100 
99 101 
99 102 
99 103 
99 104 
99 105 
99 106 
99 107 
99 108 
99 111 
99 119 
99 121 
99 123 
99 135 
99 139 
100 101 
100 102 
100 103 
100 104 
100 105 
100 106 
100 107 
100 108 
100 112 
100 116 
100 124 
100 130 
100 136 
100 138 
101 102 
101 103 
101 104 
101 105 
101 106 
101 107 
101 108 
101 112 
101 113 
101 123 
101 125 
101 134 
101 137 
102 103 
102 104 
102 105 
102 106 
102 107 
102 108 
102 111 
102 114 
102 124 
102 126 
102 133 
102 138 
103 104 
103 105 
103 106 
103 107 
103 108 
103 115 
103 117 
103 125 
103 127 
103 136 
103 139 
104 105 
104 106 
104 107 
104 108 
104 109 
104 116 
104 128 
104 129 
104 140 
104 143 
105 106 
105 107 
105 108 
105 113 
105 117 
105 122 
105 129 
105 141 
105 144 
106 107 
106 108 
106 115 
106 118 
106 128 
106 130 
106 137 
106 142 
107 108 
107 110 
107 119 
107 131 
107 132 
107 142 
107 143 
108 114 
108 120 
108 127 
108 132 
108 135 
108 144 
109 110 
109 111 
109 112 
109 113 
109 114 
109 115 
109 116 
109 117 
109 118 
109 119 
109 120 
109 121 
109 129 
109 133 
109 143 
110 111 
110 112 
110 113 
110 114 
110 115 
110 116 
110 117 
110 118 
110 119 
110 120 
110 122 
110 132 
110 134 
110 142 
111 112 
111 113 
111 114 
111 115 
111 116 
111 117 
111 118 
111 119 
111 120 
111 123 
111 124 
111 133 
111 135 
112 113 
112 114 
112 115 
112 116 
112 117 
112 118 
112 119 
112 120 
112 123 
112 124 
112 134 
112 136 
113 114 
113 115 
113 116 
113 117 
113 118 
113 119 
113 120 
113 122 
113 125 
113 137 
113 144 
114 115 
114 116 
114 117 
114 118 
114 119 
114 120 
114 126 
114 127 
114 135 
114 138 
115 116 
115 117 
115 118 
115 119 
115 120 
115 127 
115 128 
115 137 
115 139 
116 117 
116 118 
116 119 
116 120 
116 128 
116 130 
116 138 
116 140 
117 118 
117 119 
117 120 
117 125 
117 129 
117 136 
117 141 
118 119 
118 120 
118 126 
118 130 
118 141 
118 142 
119 120 
119 121 
119 131 
119 139 
119 143 
120 131 
120 132 
120 140 
120 144 
121 122 
121 123 
121 124 
121 125 
121 126 
121 127 
121 128 
121 129 
121 130 
121 131 
121 132 
121 133 
121 139 
122 123 
122 124 
122 125 
122 126 
122 127 
122 128 
122 129 
122 130 
122 131 
122 132 
122 134 
122 144 
123 124 
123 125 
123 126 
123 127 
123 128 
123 129 
123 130 
123 131 
123 132 
123 134 
123 135 
124 125 
124 126 
124 127 
124 128 
124 129 
124 130 
124 131 
124 132 
124 133 
124 136 
125 126 
125 127 
125 128 
125 129 
125 130 
125 131 
125 132 
125 136 
125 137 
126 127 
126 128 
126 129 
126 130 
126 131 
126 132 
126 138 
126 141 
127 128 
127 129 
127 130 
127 131 
127 132 
127 135 
127 139 
128 129 
128 130 
128 131 
128 132 
128 137 
128 140 
129 130 
129 131 
129 132 
129 141 
129 143 
130 131 
130 132 
130 138 
130 142 
131 132 
131 140 
131 143 
132 142 
132 144 
133 134 
133 135 
133 136 
133 137 
133 138 
133 139 
133 140 
133 141 
133 142 
133 143 
133 144 
134 135 
134 136 
134 137 
134 138 
134 139 
134 140 
134 141 
134 142 
134 143 
134 144 
135 136 
135 137 
135 138 
135 139 
135 140 
135 141 
135 142 
135 143 
135 144 
136 137 
136 138 
136 139 
136 140 
136 141 
136 142 
136 143 
136 144 
137 138 
137 139 
137 140 
137 141 
137 142 
137 143 
137 144 
138 139 
138 140 
138 141 
138 142 
138 143 
138 144 
139 140 
139 141 
139 142 
139 143 
139 144 
140 141 
140 142 
140 143 
140 144 
141 142 
141 143 
141 144 
142 143 
142 144 
143 144 
